c turning on binary mode checking
c parsing input formula with 259840 variables and 1039934 clauses
c finished parsing, read 3056884 bytes from proof file
c detected empty clause; start verification via backward checking
c 10006 of 1039934 clauses in core                            
c 2945 of 120942 lemmas in core using 109822 resolution steps
c 0 RAT lemmas in core; 764 redundant literals in core lemmas
s VERIFIED
c verification time: 1.578 seconds
